p wcnf 10 51 391
391 1 2 0
391 1 3 0
391 1 4 0
391 1 5 0
391 1 6 0
391 1 7 0
391 1 9 0
391 1 10 0
391 2 3 0
391 2 4 0
391 2 5 0
391 2 6 0
391 2 7 0
391 2 8 0
391 2 9 0
391 2 10 0
391 3 4 0
391 3 5 0
391 3 6 0
391 3 7 0
391 3 8 0
391 3 10 0
391 4 5 0
391 4 6 0
391 4 7 0
391 4 8 0
391 4 9 0
391 4 10 0
391 5 6 0
391 5 7 0
391 5 8 0
391 5 10 0
391 6 7 0
391 6 8 0
391 6 10 0
391 7 8 0
391 7 9 0
391 7 10 0
391 8 9 0
391 8 10 0
391 9 10 0
33 -1 0
32 -2 0
33 -3 0
32 -4 0
33 -5 0
33 -6 0
32 -7 0
33 -8 0
35 -9 0
32 -10 0
